c Random generated cnf formula, satisfiable: false
p cnf 10 50
10 -9 4 0
6 -9 3 0
7 4 -6 0
5 -2 -9 0
3 9 6 0
-1 10 3 0
10 5 2 0
-6 7 -10 0
7 8 4 0
6 4 3 0
-10 3 -7 0
-3 4 -6 0
-5 -10 4 0
-2 -9 -1 0
9 -6 7 0
-7 -3 6 0
4 -7 3 0
-7 10 -5 0
3 6 -2 0
-8 -10 2 0
3 -1 8 0
-7 -10 -3 0
7 -6 2 0
-3 2 7 0
9 -6 1 0
-9 1 -7 0
-2 1 -8 0
-4 9 5 0
-8 -5 -3 0
6 -9 -10 0
10 -5 -1 0
10 -9 -8 0
-4 -2 -8 0
5 3 1 0
-8 5 -6 0
7 -2 -4 0
3 10 7 0
3 -1 -10 0
6 -2 7 0
-3 1 -4 0
-6 -1 9 0
-9 -1 3 0
3 1 2 0
6 -3 -1 0
8 -10 2 0
-10 -4 9 0
4 9 -8 0
7 10 -3 0
6 -9 2 0
2 -3 8 0
